# Solution for model PIOM-SBM
# Objective value = 1.4942822989751208e-07
UB[0,0] 8.1635866532494088e+00
UB[0,1] 9
UB[1,0] 3
UB[1,1] 5.4365501785155255e+00
LB[0,0] 1
LB[0,1] 1.9105270963431398e+00
LB[1,0] 1.4277166956247354e+00
LB[1,1] 4.4365501785155255e+00
PM[0,0] 1
PM[0,1] 1.7540173195593520e+00
PM[1,0] 5.7151572049871042e+00
PM[1,1] 3.3612606901104947e+00
c[0,0] 1.0000005352210368e+00
c[0,1] 7.7978104094124721e+00
c[1,0] 2.9999999587898944e+00
c[1,1] 4.4365502334961135e+00
delt[0] 7.4714114948756039e-08
delt[1] 1
DELTA 7.4714114948756039e-08
eta[0,0,0] 0
eta[0,0,1] 1
eta[0,1,0] 1
eta[0,1,1] 1
eta[1,0,0] 0
eta[1,0,1] 0
eta[1,1,0] 1
eta[1,1,1] 0
eta[2,0,0] 0
eta[2,0,1] 0
eta[2,1,0] 1
eta[2,1,1] 1
nu[0,0] 0
nu[0,1] 0
nu[1,0] 0
nu[1,1] 1
mu[0] 0
mu[1] 0
mu[2] 0
phi[0] 1.4942822989751208e-07
phi[1] 0
